NAME : pr226
TYPE : OP
DIMENSION : 226
COST_LIMIT : 40185
ROUTE_NODES : 115
ROUTE_SCORE : 6658
ROUTE_COST : 40181
NODE_SEQUENCE_SECTION
1
74
75
76
77
78
79
80
81
82
83
84
85
86
111
103
105
113
104
106
115
108
116
117
118
110
126
128
120
121
122
123
130
132
125
216
215
214
213
212
211
210
209
208
207
206
205
204
203
202
201
200
199
198
197
196
195
194
193
192
191
190
189
188
187
186
185
184
183
182
181
150
143
142
141
140
147
145
139
138
137
144
94
93
101
100
99
91
90
88
89
87
96
95
62
61
60
59
58
57
56
55
54
53
52
65
67
16
11
8
6
5
4
3
2
-1
DEPOT_SECTION
1
-1
EOF
